17	4
16	7	12	19	
0	0	0	0	0	3	2	3	4	
9	0	0	0	8	3	6	8	9	
4	0	5	0	0	2	7	17	
2	5	0	0	0	1	5	
10	0	0	0	8	2	14	17	
25	0	0	0	10	1	13	
25	3	0	0	0	2	10	12	
125	0	0	5	0	2	11	17	
200	10	0	0	0	2	14	17	
75	0	0	0	2	3	15	16	17	
225	0	0	0	3	1	17	
225	0	0	0	5	1	17	
5	5	0	0	0	3	17	17	17	
6	0	0	0	10	3	16	17	17	
4	4	0	0	0	2	17	17	
7	0	6	0	0	1	17	
0	0	0	0	0	0	
